data/hard_4.dzn
num_nodi = 9;
ufficio_postale = 9;
dim_borsa = 12;
max_step = 36;
elenco_lettere = [6, 9, 3, 4, 2, 4, 2, 8, 0];
distanze = [|0, 8, 1, 2, 4, 14, 24, 18, 17
|17, 0, 25, 5, 22, 6, 5, 21, 19
|9, 14, 0, 3, 13, 10, 1, 17, 23
|8, 3, 17, 0, 6, 6, 13, 11, 8
|6, 2, 10, 23, 0, 3, 25, 21, 5
|18, 10, 17, 11, 9, 0, 9, 23, 4
|24, 14, 25, 14, 19, 25, 0, 9, 8
|15, 21, 22, 14, 15, 14, 3, 0, 20
|16, 7, 4, 16, 15, 22, 23, 21, 0
|];
