data/hard_4.lp
node(1..9).

ufficio_postale(9).

dim_borsa(12).

time(1..36).

lettere(1,6).
lettere(2,9).
lettere(3,3).
lettere(4,4).
lettere(5,2).
lettere(6,4).
lettere(7,2).
lettere(8,8).
lettere(9,0).

costo_arco(1, 1, 0).
costo_arco(1, 2, 8).
costo_arco(1, 3, 1).
costo_arco(1, 4, 2).
costo_arco(1, 5, 4).
costo_arco(1, 6, 14).
costo_arco(1, 7, 24).
costo_arco(1, 8, 18).
costo_arco(1, 9, 17).

costo_arco(2, 1, 17).
costo_arco(2, 2, 0).
costo_arco(2, 3, 25).
costo_arco(2, 4, 5).
costo_arco(2, 5, 22).
costo_arco(2, 6, 6).
costo_arco(2, 7, 5).
costo_arco(2, 8, 21).
costo_arco(2, 9, 19).

costo_arco(3, 1, 9).
costo_arco(3, 2, 14).
costo_arco(3, 3, 0).
costo_arco(3, 4, 3).
costo_arco(3, 5, 13).
costo_arco(3, 6, 10).
costo_arco(3, 7, 1).
costo_arco(3, 8, 17).
costo_arco(3, 9, 23).

costo_arco(4, 1, 8).
costo_arco(4, 2, 3).
costo_arco(4, 3, 17).
costo_arco(4, 4, 0).
costo_arco(4, 5, 6).
costo_arco(4, 6, 6).
costo_arco(4, 7, 13).
costo_arco(4, 8, 11).
costo_arco(4, 9, 8).

costo_arco(5, 1, 6).
costo_arco(5, 2, 2).
costo_arco(5, 3, 10).
costo_arco(5, 4, 23).
costo_arco(5, 5, 0).
costo_arco(5, 6, 3).
costo_arco(5, 7, 25).
costo_arco(5, 8, 21).
costo_arco(5, 9, 5).

costo_arco(6, 1, 18).
costo_arco(6, 2, 10).
costo_arco(6, 3, 17).
costo_arco(6, 4, 11).
costo_arco(6, 5, 9).
costo_arco(6, 6, 0).
costo_arco(6, 7, 9).
costo_arco(6, 8, 23).
costo_arco(6, 9, 4).

costo_arco(7, 1, 24).
costo_arco(7, 2, 14).
costo_arco(7, 3, 25).
costo_arco(7, 4, 14).
costo_arco(7, 5, 19).
costo_arco(7, 6, 25).
costo_arco(7, 7, 0).
costo_arco(7, 8, 9).
costo_arco(7, 9, 8).

costo_arco(8, 1, 15).
costo_arco(8, 2, 21).
costo_arco(8, 3, 22).
costo_arco(8, 4, 14).
costo_arco(8, 5, 15).
costo_arco(8, 6, 14).
costo_arco(8, 7, 3).
costo_arco(8, 8, 0).
costo_arco(8, 9, 20).

costo_arco(9, 1, 16).
costo_arco(9, 2, 7).
costo_arco(9, 3, 4).
costo_arco(9, 4, 16).
costo_arco(9, 5, 15).
costo_arco(9, 6, 22).
costo_arco(9, 7, 23).
costo_arco(9, 8, 21).
costo_arco(9, 9, 0).

